
Gurobi 9.1.0 (win64, Python) logging started Mon Feb 15 22:11:50 2021

Set parameter LogFile to value gurobi.log

Gurobi 9.1.0 (win64, Python) logging started Mon Mar  1 14:14:14 2021

Set parameter LogFile to value gurobi.log

Gurobi 9.1.0 (win64, Python) logging started Mon Mar  1 14:15:09 2021

Using license file C:\Users\freed\gurobi.lic
Set parameter LogFile to value gurobi.log
Academic license - for non-commercial use only - expires 2021-04-17

Gurobi 9.1.0 (win64, Python) logging started Mon Apr 19 11:18:32 2021

Using license file C:\Users\freed\gurobi.lic
Set parameter LogFile to value gurobi.log

Gurobi 9.1.0 (win64, Python) logging started Mon Apr 19 11:21:01 2021

Using license file C:\Users\freed\gurobi.lic
Set parameter LogFile to value gurobi.log

Gurobi 9.1.0 (win64, Python) logging started Mon Apr 19 11:21:09 2021

Using license file C:\Users\freed\gurobi.lic
Set parameter LogFile to value gurobi.log

Gurobi 9.1.0 (win64, Python) logging started Mon Apr 19 11:21:51 2021

Using license file C:\Users\freed\gurobi.lic
Set parameter LogFile to value gurobi.log

Gurobi 9.1.0 (win64, Python) logging started Mon Apr 19 11:27:27 2021

Using license file C:\Users\freed\gurobi.lic
Set parameter LogFile to value gurobi.log
Academic license - for non-commercial use only - expires 2021-06-18
